20 4
99 90 46 67 46 59 115 72 60 74 37 60 64 60 26 102 76 51 39 68
75 78 63 65 36 51 92 81 52 81 37 66 55 49 34 98 82 22 27 72
80 63 43 87 55 43 110 87 53 79 52 76 53 37 22 87 69 42 37 71
100 82 49 83 36 47 110 72 65 81 39 80 48 44 47 95 83 36 38 80
